NAME : rnd84_20.tsp
TYPE : TSP
DIMENSION : 20
EDGE_WEIGHT_TYPE : EUC_2D
NODE_COORD_SECTION
0 670 237
1 958 742
2 632 934
3 720 987
4 639 516
5 108 599
6 177 700
7 79 613
8 159 430
9 513 127
10 119 328
11 105 261
12 334 674
13 790 668
14 815 723
15 618 837
16 904 66
17 588 872
18 264 218
19 412 354
